(set-logic QF_LRA)
(declare-fun X0 () Real )
(declare-fun Y0 () Real )
(declare-fun X1 () Real )
(declare-fun Y1 () Real )
(declare-fun X2 () Real )
(declare-fun Y2 () Real )
(declare-fun X3 () Real )
(declare-fun Y3 () Real )
(declare-fun X4 () Real )
(declare-fun Y4 () Real )
(declare-fun X5 () Real )
(declare-fun Y5 () Real )
(declare-fun X6 () Real )
(declare-fun Y6 () Real )
(declare-fun X7 () Real )
(declare-fun Y7 () Real )
(declare-fun X8 () Real )
(declare-fun Y8 () Real )
(declare-fun X9 () Real )
(declare-fun Y9 () Real )
(declare-fun X10 () Real )
(declare-fun Y10 () Real )
(declare-fun X11 () Real )
(declare-fun Y11 () Real )
(declare-fun Z () Real )
(declare-fun k () Real )
(assert (let
(( $goal (>= Z k) ))
(let
((
$phi ( and 
( or ( <= ( + X0 39 ) X1 )  ( <= ( + X1 86 ) X0 )  ( <= ( + Y0 42 ) Y1 )  ( <= ( + Y1 51 ) Y0 )  )
( or ( <= ( + X0 39 ) X2 )  ( <= ( + X2 17 ) X0 )  ( <= ( + Y0 42 ) Y2 )  ( <= ( + Y2 32 ) Y0 )  )
( or ( <= ( + X0 39 ) X3 )  ( <= ( + X3 65 ) X0 )  ( <= ( + Y0 42 ) Y3 )  ( <= ( + Y3 90 ) Y0 )  )
( or ( <= ( + X0 39 ) X4 )  ( <= ( + X4 94 ) X0 )  ( <= ( + Y0 42 ) Y4 )  ( <= ( + Y4 96 ) Y0 )  )
( or ( <= ( + X0 39 ) X5 )  ( <= ( + X5 37 ) X0 )  ( <= ( + Y0 42 ) Y5 )  ( <= ( + Y5 19 ) Y0 )  )
( or ( <= ( + X0 39 ) X6 )  ( <= ( + X6 4 ) X0 )  ( <= ( + Y0 42 ) Y6 )  ( <= ( + Y6 86 ) Y0 )  )
( or ( <= ( + X0 39 ) X7 )  ( <= ( + X7 28 ) X0 )  ( <= ( + Y0 42 ) Y7 )  ( <= ( + Y7 60 ) Y0 )  )
( or ( <= ( + X0 39 ) X8 )  ( <= ( + X8 32 ) X0 )  ( <= ( + Y0 42 ) Y8 )  ( <= ( + Y8 35 ) Y0 )  )
( or ( <= ( + X0 39 ) X9 )  ( <= ( + X9 8 ) X0 )  ( <= ( + Y0 42 ) Y9 )  ( <= ( + Y9 46 ) Y0 )  )
( or ( <= ( + X0 39 ) X10 )  ( <= ( + X10 44 ) X0 )  ( <= ( + Y0 42 ) Y10 )  ( <= ( + Y10 15 ) Y0 )  )
( or ( <= ( + X0 39 ) X11 )  ( <= ( + X11 62 ) X0 )  ( <= ( + Y0 42 ) Y11 )  ( <= ( + Y11 65 ) Y0 )  )
( or ( <= ( + X1 86 ) X2 )  ( <= ( + X2 17 ) X1 )  ( <= ( + Y1 51 ) Y2 )  ( <= ( + Y2 32 ) Y1 )  )
( or ( <= ( + X1 86 ) X3 )  ( <= ( + X3 65 ) X1 )  ( <= ( + Y1 51 ) Y3 )  ( <= ( + Y3 90 ) Y1 )  )
( or ( <= ( + X1 86 ) X4 )  ( <= ( + X4 94 ) X1 )  ( <= ( + Y1 51 ) Y4 )  ( <= ( + Y4 96 ) Y1 )  )
( or ( <= ( + X1 86 ) X5 )  ( <= ( + X5 37 ) X1 )  ( <= ( + Y1 51 ) Y5 )  ( <= ( + Y5 19 ) Y1 )  )
( or ( <= ( + X1 86 ) X6 )  ( <= ( + X6 4 ) X1 )  ( <= ( + Y1 51 ) Y6 )  ( <= ( + Y6 86 ) Y1 )  )
( or ( <= ( + X1 86 ) X7 )  ( <= ( + X7 28 ) X1 )  ( <= ( + Y1 51 ) Y7 )  ( <= ( + Y7 60 ) Y1 )  )
( or ( <= ( + X1 86 ) X8 )  ( <= ( + X8 32 ) X1 )  ( <= ( + Y1 51 ) Y8 )  ( <= ( + Y8 35 ) Y1 )  )
( or ( <= ( + X1 86 ) X9 )  ( <= ( + X9 8 ) X1 )  ( <= ( + Y1 51 ) Y9 )  ( <= ( + Y9 46 ) Y1 )  )
( or ( <= ( + X1 86 ) X10 )  ( <= ( + X10 44 ) X1 )  ( <= ( + Y1 51 ) Y10 )  ( <= ( + Y10 15 ) Y1 )  )
( or ( <= ( + X1 86 ) X11 )  ( <= ( + X11 62 ) X1 )  ( <= ( + Y1 51 ) Y11 )  ( <= ( + Y11 65 ) Y1 )  )
( or ( <= ( + X2 17 ) X3 )  ( <= ( + X3 65 ) X2 )  ( <= ( + Y2 32 ) Y3 )  ( <= ( + Y3 90 ) Y2 )  )
( or ( <= ( + X2 17 ) X4 )  ( <= ( + X4 94 ) X2 )  ( <= ( + Y2 32 ) Y4 )  ( <= ( + Y4 96 ) Y2 )  )
( or ( <= ( + X2 17 ) X5 )  ( <= ( + X5 37 ) X2 )  ( <= ( + Y2 32 ) Y5 )  ( <= ( + Y5 19 ) Y2 )  )
( or ( <= ( + X2 17 ) X6 )  ( <= ( + X6 4 ) X2 )  ( <= ( + Y2 32 ) Y6 )  ( <= ( + Y6 86 ) Y2 )  )
( or ( <= ( + X2 17 ) X7 )  ( <= ( + X7 28 ) X2 )  ( <= ( + Y2 32 ) Y7 )  ( <= ( + Y7 60 ) Y2 )  )
( or ( <= ( + X2 17 ) X8 )  ( <= ( + X8 32 ) X2 )  ( <= ( + Y2 32 ) Y8 )  ( <= ( + Y8 35 ) Y2 )  )
( or ( <= ( + X2 17 ) X9 )  ( <= ( + X9 8 ) X2 )  ( <= ( + Y2 32 ) Y9 )  ( <= ( + Y9 46 ) Y2 )  )
( or ( <= ( + X2 17 ) X10 )  ( <= ( + X10 44 ) X2 )  ( <= ( + Y2 32 ) Y10 )  ( <= ( + Y10 15 ) Y2 )  )
( or ( <= ( + X2 17 ) X11 )  ( <= ( + X11 62 ) X2 )  ( <= ( + Y2 32 ) Y11 )  ( <= ( + Y11 65 ) Y2 )  )
( or ( <= ( + X3 65 ) X4 )  ( <= ( + X4 94 ) X3 )  ( <= ( + Y3 90 ) Y4 )  ( <= ( + Y4 96 ) Y3 )  )
( or ( <= ( + X3 65 ) X5 )  ( <= ( + X5 37 ) X3 )  ( <= ( + Y3 90 ) Y5 )  ( <= ( + Y5 19 ) Y3 )  )
( or ( <= ( + X3 65 ) X6 )  ( <= ( + X6 4 ) X3 )  ( <= ( + Y3 90 ) Y6 )  ( <= ( + Y6 86 ) Y3 )  )
( or ( <= ( + X3 65 ) X7 )  ( <= ( + X7 28 ) X3 )  ( <= ( + Y3 90 ) Y7 )  ( <= ( + Y7 60 ) Y3 )  )
( or ( <= ( + X3 65 ) X8 )  ( <= ( + X8 32 ) X3 )  ( <= ( + Y3 90 ) Y8 )  ( <= ( + Y8 35 ) Y3 )  )
( or ( <= ( + X3 65 ) X9 )  ( <= ( + X9 8 ) X3 )  ( <= ( + Y3 90 ) Y9 )  ( <= ( + Y9 46 ) Y3 )  )
( or ( <= ( + X3 65 ) X10 )  ( <= ( + X10 44 ) X3 )  ( <= ( + Y3 90 ) Y10 )  ( <= ( + Y10 15 ) Y3 )  )
( or ( <= ( + X3 65 ) X11 )  ( <= ( + X11 62 ) X3 )  ( <= ( + Y3 90 ) Y11 )  ( <= ( + Y11 65 ) Y3 )  )
( or ( <= ( + X4 94 ) X5 )  ( <= ( + X5 37 ) X4 )  ( <= ( + Y4 96 ) Y5 )  ( <= ( + Y5 19 ) Y4 )  )
( or ( <= ( + X4 94 ) X6 )  ( <= ( + X6 4 ) X4 )  ( <= ( + Y4 96 ) Y6 )  ( <= ( + Y6 86 ) Y4 )  )
( or ( <= ( + X4 94 ) X7 )  ( <= ( + X7 28 ) X4 )  ( <= ( + Y4 96 ) Y7 )  ( <= ( + Y7 60 ) Y4 )  )
( or ( <= ( + X4 94 ) X8 )  ( <= ( + X8 32 ) X4 )  ( <= ( + Y4 96 ) Y8 )  ( <= ( + Y8 35 ) Y4 )  )
( or ( <= ( + X4 94 ) X9 )  ( <= ( + X9 8 ) X4 )  ( <= ( + Y4 96 ) Y9 )  ( <= ( + Y9 46 ) Y4 )  )
( or ( <= ( + X4 94 ) X10 )  ( <= ( + X10 44 ) X4 )  ( <= ( + Y4 96 ) Y10 )  ( <= ( + Y10 15 ) Y4 )  )
( or ( <= ( + X4 94 ) X11 )  ( <= ( + X11 62 ) X4 )  ( <= ( + Y4 96 ) Y11 )  ( <= ( + Y11 65 ) Y4 )  )
( or ( <= ( + X5 37 ) X6 )  ( <= ( + X6 4 ) X5 )  ( <= ( + Y5 19 ) Y6 )  ( <= ( + Y6 86 ) Y5 )  )
( or ( <= ( + X5 37 ) X7 )  ( <= ( + X7 28 ) X5 )  ( <= ( + Y5 19 ) Y7 )  ( <= ( + Y7 60 ) Y5 )  )
( or ( <= ( + X5 37 ) X8 )  ( <= ( + X8 32 ) X5 )  ( <= ( + Y5 19 ) Y8 )  ( <= ( + Y8 35 ) Y5 )  )
( or ( <= ( + X5 37 ) X9 )  ( <= ( + X9 8 ) X5 )  ( <= ( + Y5 19 ) Y9 )  ( <= ( + Y9 46 ) Y5 )  )
( or ( <= ( + X5 37 ) X10 )  ( <= ( + X10 44 ) X5 )  ( <= ( + Y5 19 ) Y10 )  ( <= ( + Y10 15 ) Y5 )  )
( or ( <= ( + X5 37 ) X11 )  ( <= ( + X11 62 ) X5 )  ( <= ( + Y5 19 ) Y11 )  ( <= ( + Y11 65 ) Y5 )  )
( or ( <= ( + X6 4 ) X7 )  ( <= ( + X7 28 ) X6 )  ( <= ( + Y6 86 ) Y7 )  ( <= ( + Y7 60 ) Y6 )  )
( or ( <= ( + X6 4 ) X8 )  ( <= ( + X8 32 ) X6 )  ( <= ( + Y6 86 ) Y8 )  ( <= ( + Y8 35 ) Y6 )  )
( or ( <= ( + X6 4 ) X9 )  ( <= ( + X9 8 ) X6 )  ( <= ( + Y6 86 ) Y9 )  ( <= ( + Y9 46 ) Y6 )  )
( or ( <= ( + X6 4 ) X10 )  ( <= ( + X10 44 ) X6 )  ( <= ( + Y6 86 ) Y10 )  ( <= ( + Y10 15 ) Y6 )  )
( or ( <= ( + X6 4 ) X11 )  ( <= ( + X11 62 ) X6 )  ( <= ( + Y6 86 ) Y11 )  ( <= ( + Y11 65 ) Y6 )  )
( or ( <= ( + X7 28 ) X8 )  ( <= ( + X8 32 ) X7 )  ( <= ( + Y7 60 ) Y8 )  ( <= ( + Y8 35 ) Y7 )  )
( or ( <= ( + X7 28 ) X9 )  ( <= ( + X9 8 ) X7 )  ( <= ( + Y7 60 ) Y9 )  ( <= ( + Y9 46 ) Y7 )  )
( or ( <= ( + X7 28 ) X10 )  ( <= ( + X10 44 ) X7 )  ( <= ( + Y7 60 ) Y10 )  ( <= ( + Y10 15 ) Y7 )  )
( or ( <= ( + X7 28 ) X11 )  ( <= ( + X11 62 ) X7 )  ( <= ( + Y7 60 ) Y11 )  ( <= ( + Y11 65 ) Y7 )  )
( or ( <= ( + X8 32 ) X9 )  ( <= ( + X9 8 ) X8 )  ( <= ( + Y8 35 ) Y9 )  ( <= ( + Y9 46 ) Y8 )  )
( or ( <= ( + X8 32 ) X10 )  ( <= ( + X10 44 ) X8 )  ( <= ( + Y8 35 ) Y10 )  ( <= ( + Y10 15 ) Y8 )  )
( or ( <= ( + X8 32 ) X11 )  ( <= ( + X11 62 ) X8 )  ( <= ( + Y8 35 ) Y11 )  ( <= ( + Y11 65 ) Y8 )  )
( or ( <= ( + X9 8 ) X10 )  ( <= ( + X10 44 ) X9 )  ( <= ( + Y9 46 ) Y10 )  ( <= ( + Y10 15 ) Y9 )  )
( or ( <= ( + X9 8 ) X11 )  ( <= ( + X11 62 ) X9 )  ( <= ( + Y9 46 ) Y11 )  ( <= ( + Y11 65 ) Y9 )  )
( or ( <= ( + X10 44 ) X11 )  ( <= ( + X11 62 ) X10 )  ( <= ( + Y10 15 ) Y11 )  ( <= ( + Y11 65 ) Y10 )  )
( >= X0 0)
( <= ( + X0 39) Z)
( >= Y0 0)
( <= ( + Y0 42 ) 100)
( >= X1 0)
( <= ( + X1 86) Z)
( >= Y1 0)
( <= ( + Y1 51 ) 100)
( >= X2 0)
( <= ( + X2 17) Z)
( >= Y2 0)
( <= ( + Y2 32 ) 100)
( >= X3 0)
( <= ( + X3 65) Z)
( >= Y3 0)
( <= ( + Y3 90 ) 100)
( >= X4 0)
( <= ( + X4 94) Z)
( >= Y4 0)
( <= ( + Y4 96 ) 100)
( >= X5 0)
( <= ( + X5 37) Z)
( >= Y5 0)
( <= ( + Y5 19 ) 100)
( >= X6 0)
( <= ( + X6 4) Z)
( >= Y6 0)
( <= ( + Y6 86 ) 100)
( >= X7 0)
( <= ( + X7 28) Z)
( >= Y7 0)
( <= ( + Y7 60 ) 100)
( >= X8 0)
( <= ( + X8 32) Z)
( >= Y8 0)
( <= ( + Y8 35 ) 100)
( >= X9 0)
( <= ( + X9 8) Z)
( >= Y9 0)
( <= ( + Y9 46 ) 100)
( >= X10 0)
( <= ( + X10 44) Z)
( >= Y10 0)
( <= ( + Y10 15 ) 100)
( >= X11 0)
( <= ( + X11 62) Z)
( >= Y11 0)
( <= ( + Y11 65 ) 100)
) )
)(=> $phi $goal))))